data/instances/vrp_files/train_37.vrp
NAME : 37
COMMENT : Generated instance No. 37
TYPE : CVRP
DIMENSION : 21
EDGE_WEIGHT_TYPE : EUC_2D
CAPACITY : 30
NODE_COORD_SECTION
 1 305 212
 2 819 540
 3 710 314
 4 471 821
 5 459 357
 6 494 828
 7 335 173
 8 712 825
 9 100 239
 10 141 347
 11 450 748
 12 651 620
 13 352 841
 14 471 979
 15 634 126
 16 676 325
 17 686 69
 18 174 855
 19 227 837
 20 279 642
 21 694 512
DEMAND_SECTION
1 0
2 3
3 9
4 5
5 5
6 4
7 4
8 1
9 7
10 9
11 3
12 2
13 3
14 1
15 6
16 7
17 2
18 8
19 6
20 4
21 5
DEPOT_SECTION
 1
 -1
EOF